
Gurobi 9.1.2 (linux64) logging started Wed Nov 24 10:32:54 2021

Changed value of parameter LogFile to lemke_square_v-(6, 5).log-s20-l10.log
   Prev:   Default: 
Changed value of parameter Threads to 32
   Prev: 0  Min: 0  Max: 1024  Default: 0
Changed value of parameter TimeLimit to 3600.0
   Prev: inf  Min: 0.0  Max: inf  Default: inf
Changed value of parameter MIPGap to 0.4
   Prev: 0.0001  Min: 0.0  Max: inf  Default: 0.0001
Warning: variable name "X[(7, 4),(7, 3)]" has a space
Warning: constraint name "flow-constr-t0-v(3, 0)" has a space
Warning: to let Gurobi read it back, use rlp format
Gurobi Optimizer version 9.1.2 build v9.1.2rc0 (linux64)
Thread count: 16 physical cores, 32 logical processors, using up to 32 threads
Optimize a model with 6033 rows, 5440 columns and 20720 nonzeros
Model fingerprint: 0xc4ef1f5d
Variable types: 0 continuous, 5440 integer (4800 binary)
Coefficient statistics:
  Matrix range     [1e+00, 1e+03]
  Objective range  [1e-01, 1e-01]
  Bounds range     [1e+00, 5e+02]
  RHS range        [1e+00, 1e+03]
Presolve removed 477 rows and 500 columns
Presolve time: 0.04s
Presolved: 5556 rows, 4940 columns, 18470 nonzeros
Variable types: 0 continuous, 4940 integer (4300 binary)

Root relaxation: objective 6.400000e+01, 128 iterations, 0.00 seconds

    Nodes    |    Current Node    |     Objective Bounds      |     Work
 Expl Unexpl |  Obj  Depth IntInf | Incumbent    BestBd   Gap | It/Node Time

     0     0   64.00000    0   44          -   64.00000      -     -    0s
     0     0   64.00000    0   49          -   64.00000      -     -    0s
     0     0   64.00000    0   51          -   64.00000      -     -    0s
     0     0   64.00000    0   50          -   64.00000      -     -    0s
     0     0   64.00000    0   50          -   64.00000      -     -    0s
     0     0   64.00000    0   54          -   64.00000      -     -    0s
H    0     0                    3194.0000000   64.00000  98.0%     -    0s
     0     0   64.00000    0   50 3194.00000   64.00000  98.0%     -    0s
H    0     0                     126.7000000   64.00000  49.5%     -    0s
     0     2   64.00000    0   50  126.70000   64.00000  49.5%     -    0s
H   31    64                     122.8000000   64.00000  47.9%  64.6    1s
H   31    64                     120.5000000   64.00000  46.9%  64.6    1s
H   32    64                     119.9000000   64.00000  46.6%  65.8    1s
H   34    64                     115.5000000   64.00000  44.6%  66.6    1s
H   41    64                     114.3000000   64.00000  44.0%  68.6    1s
H   95   128                     114.2000000   64.00000  44.0%  70.0    2s
H   96   128                     109.8000000   64.00000  41.7%  69.4    2s
H  102   128                      95.9000000   64.00000  33.3%  65.4    2s

Cutting planes:
  Gomory: 5
  Cover: 145
  Implied bound: 173
  Clique: 10
  MIR: 35
  StrongCG: 1
  Flow cover: 26
  Zero half: 1
  RLT: 14
  Relax-and-lift: 26

Explored 127 nodes (8763 simplex iterations) in 2.95 seconds
Thread count was 32 (of 32 available processors)

Solution count 10: 95.9 109.8 114.2 ... 3194

Optimal solution found (tolerance 4.00e-01)
Best objective 9.590000000000e+01, best bound 6.400000000000e+01, gap 33.2638%

Gurobi 9.1.2 (linux64) logging started Wed Nov 24 12:42:39 2021

Changed value of parameter LogFile to lemke_square_v-(6, 5).log-s20-l10.log
   Prev:   Default: 
Changed value of parameter Threads to 32
   Prev: 0  Min: 0  Max: 1024  Default: 0
Changed value of parameter TimeLimit to 3600.0
   Prev: inf  Min: 0.0  Max: inf  Default: inf
Changed value of parameter MIPGap to 0.3
   Prev: 0.0001  Min: 0.0  Max: inf  Default: 0.0001
Warning: variable name "X[(7, 4),(7, 3)]" has a space
Warning: constraint name "flow-constr-t0-v(3, 0)" has a space
Warning: to let Gurobi read it back, use rlp format
Gurobi Optimizer version 9.1.2 build v9.1.2rc0 (linux64)
Thread count: 16 physical cores, 32 logical processors, using up to 32 threads
Optimize a model with 6033 rows, 5440 columns and 20720 nonzeros
Model fingerprint: 0xc4ef1f5d
Variable types: 0 continuous, 5440 integer (4800 binary)
Coefficient statistics:
  Matrix range     [1e+00, 1e+03]
  Objective range  [1e-01, 1e-01]
  Bounds range     [1e+00, 5e+02]
  RHS range        [1e+00, 1e+03]
Presolve removed 477 rows and 500 columns
Presolve time: 0.04s
Presolved: 5556 rows, 4940 columns, 18470 nonzeros
Variable types: 0 continuous, 4940 integer (4300 binary)

Root relaxation: objective 6.400000e+01, 128 iterations, 0.00 seconds

    Nodes    |    Current Node    |     Objective Bounds      |     Work
 Expl Unexpl |  Obj  Depth IntInf | Incumbent    BestBd   Gap | It/Node Time

     0     0   64.00000    0   44          -   64.00000      -     -    0s
     0     0   64.00000    0   49          -   64.00000      -     -    0s
     0     0   64.00000    0   51          -   64.00000      -     -    0s
     0     0   64.00000    0   50          -   64.00000      -     -    0s
     0     0   64.00000    0   50          -   64.00000      -     -    0s
     0     0   64.00000    0   54          -   64.00000      -     -    0s
H    0     0                    3194.0000000   64.00000  98.0%     -    0s
     0     0   64.00000    0   50 3194.00000   64.00000  98.0%     -    0s
H    0     0                     126.7000000   64.00000  49.5%     -    0s
     0     2   64.00000    0   50  126.70000   64.00000  49.5%     -    0s
H   31    64                     122.8000000   64.00000  47.9%  64.6    1s
H   31    64                     120.5000000   64.00000  46.9%  64.6    1s
H   32    64                     119.9000000   64.00000  46.6%  65.8    1s
H   34    64                     115.5000000   64.00000  44.6%  66.6    1s
H   41    64                     114.3000000   64.00000  44.0%  68.6    1s
H   95   128                     114.2000000   64.00000  44.0%  70.0    2s
H   96   128                     109.8000000   64.00000  41.7%  69.4    2s
H  102   128                      95.9000000   64.00000  33.3%  65.4    2s
H 9855  9297                      94.3000000   64.00000  32.1%   7.2    4s
H 9858  8832                      92.2000000   64.00000  30.6%   7.2    4s
H 9858  8390                      91.8000000   64.00000  30.3%   7.2    4s
H 9858  7970                      90.9000000   64.00000  29.6%   7.2    5s

Cutting planes:
  Cover: 18
  Implied bound: 15
  Projected implied bound: 4
  Clique: 2
  MIR: 13
  Flow cover: 9
  Zero half: 2
  RLT: 7
  Relax-and-lift: 7

Explored 9858 nodes (73636 simplex iterations) in 5.13 seconds
Thread count was 32 (of 32 available processors)

Solution count 10: 90.9 91.8 92.2 ... 119.9

Optimal solution found (tolerance 3.00e-01)
Best objective 9.090000000000e+01, best bound 6.400000000000e+01, gap 29.5930%
